Maximize
  - 4.8347040189129 edge_0_1_0_0 - 5.003255881037401 edge_0_5_0_0
   - 0.7695955033504799 edge_0_9_0_0 - 2.9445740038944 edge_0_10_0_0
   - 3.9103282882584 edge_0_13_0_0 - 1.8803228959064 edge_0_16_0_0
   - 2.5527350208828 edge_0_20_0_0 - 1.3923641630456 edge_0_22_0_0
   + 0.5358401558237151 edge_1_3_0_0 + 0.2806279794251412 edge_1_4_0_0
   + 1.003774109472184 edge_1_5_0_0 + 0.7899927768303743 edge_1_7_0_0
   + 0.6086306415381105 edge_1_8_0_0 - 0.1457573503141256 edge_1_10_0_0
   - 1.314127161846518 edge_1_13_0_0 - 0.5582153340329959 edge_1_16_0_0
   - 0.1342341836981567 edge_1_20_0_0 - 0.2261457856005673 edge_1_22_0_0
   - 0.9181720526972031 edge_3_1_0_0 - 0.61273145335973 edge_3_7_0_0
   - 0.9191194621130812 edge_4_1_0_0 + 0.6475114731804221 edge_4_3_0_0
   + 0.6253346414959708 edge_4_5_0_0 + 0.2378004584599148 edge_4_7_0_0
   - 0.2498891339016951 edge_4_8_0_0 - 1.161972384606145 edge_4_10_0_0
   - 1.311868048318848 edge_4_16_0_0 - 0.4451126781731533 edge_5_1_0_0
   + 1.958314921343456 edge_5_3_0_0 + 3.359235598325462 edge_5_4_0_0
   + 1.15483391014533 edge_5_7_0_0 + 0.3798471229556803 edge_5_8_0_0
   - 0.2643965906512185 edge_5_10_0_0 - 1.517886376639778 edge_5_13_0_0
   - 0.8678354868286363 edge_5_16_0_0 - 0.8535751260409031 edge_5_22_0_0
   - 1.11519356749818 edge_7_3_0_0 - 1.160842847480307 edge_7_5_0_0
   - 0.4465587720993994 edge_7_8_0_0 - 1.221574499761867 edge_8_5_0_0
   - 0.3336546692676439 edge_8_7_0_0 + 0.9029121546277129 edge_9_10_0_0
   + 0.3388868458395403 edge_9_11_0_0 + 1.481174008943017 edge_9_12_0_0
   + 1.278764434977844 edge_9_13_0_0 + 0.9449918333511449 edge_9_16_0_0
   - 0.6243198256958643 edge_9_17_0_0 + 0.3473597981387678 edge_9_18_0_0
   + 7.5698976184017538e-04 edge_9_19_0_0 + 1.857164405113499 edge_9_20_0_0
   + 2.232950203942202 edge_9_22_0_0 - 0.6093489572674048 edge_10_1_0_0
   - 0.6369565266420238 edge_10_3_0_0 + 0.2520995687822724 edge_10_4_0_0
   - 0.3782738907792665 edge_10_5_0_0 + 0.0638534844574164 edge_10_7_0_0
   + 0.7921428292022308 edge_10_8_0_0 + 0.305014705462162 edge_10_11_0_0
   + 0.7491500193591608 edge_10_12_0_0 + 1.402936721035273 edge_10_13_0_0
   + 0.0402689300090787 edge_10_15_0_0 + 1.912669161548723 edge_10_16_0_0
   - 0.0665325138774859 edge_10_17_0_0 + 0.4702686116084298 edge_10_18_0_0
   + 0.2043155463830442 edge_10_19_0_0 + 0.9626390449199808 edge_10_20_0_0
   + 0.5917443435622733 edge_10_22_0_0 - 0.424070920579722 edge_11_10_0_0
   + 0.779569948884973 edge_11_12_0_0 - 0.2353140014932506 edge_11_13_0_0
   + 0.9557509504552628 edge_11_16_0_0 - 0.0777455059465645 edge_11_17_0_0
   - 1.129799816977075 edge_11_18_0_0 - 0.3837697674481357 edge_11_19_0_0
   + 1.872352192889813 edge_12_10_0_0 + 1.743705820034378 edge_12_11_0_0
   + 3.159453339204524 edge_12_13_0_0 + 0.4975111429315124 edge_12_16_0_0
   - 0.0327927791360778 edge_12_17_0_0 - 0.2550191418828901 edge_12_18_0_0
   - 0.2041588215535422 edge_12_19_0_0 + 0.6683762963928286 edge_12_20_0_0
   + 0.1536380576477298 edge_12_22_0_0 - 1.610171630486194 edge_13_1_0_0
   - 1.165513471901854 edge_13_3_0_0 - 1.469035603293022 edge_13_5_0_0
   - 1.791783223412593 edge_13_7_0_0 - 0.7546482676012243 edge_13_8_0_0
   + 2.786263058559034 edge_13_10_0_0 + 0.9353433519549557 edge_13_11_0_0
   + 3.39865500137646 edge_13_12_0_0 + 0.5818121921825313 edge_13_15_0_0
   + 0.2356362805689747 edge_13_16_0_0 + 2.236021530783961 edge_13_17_0_0
   - 0.2548497814017054 edge_13_18_0_0 - 0.3228214853009293 edge_13_19_0_0
   + 0.6216039034807777 edge_13_20_0_0 + 0.7532951955841185 edge_13_22_0_0
   - 0.671418458573603 edge_15_11_0_0 - 0.9809101328535587 edge_15_13_0_0
   - 1.062823700542128 edge_16_1_0_0 - 0.5686331978500071 edge_16_3_0_0
   - 0.6626990130216792 edge_16_4_0_0 - 0.9623578604092643 edge_16_5_0_0
   - 1.063701407746203 edge_16_7_0_0 - 0.1903004490307842 edge_16_8_0_0
   + 0.1100882818925952 edge_16_9_0_0 + 0.5992625925170184 edge_16_10_0_0
   + 3.237892887881493 edge_16_11_0_0 + 1.553270153085993 edge_16_12_0_0
   + 2.464016685056211 edge_16_13_0_0 + 3.465245878455154 edge_16_15_0_0
   - 0.0452970698834724 edge_16_17_0_0 - 0.1798795108387725 edge_16_18_0_0
   - 0.0245113747876951 edge_16_19_0_0 + 0.4862927451741386 edge_16_20_0_0
   + 0.5352119856119819 edge_16_22_0_0 - 0.3001865464449023 edge_17_10_0_0
   - 0.8321996290043785 edge_17_13_0_0 - 0.6140574601846388 edge_17_16_0_0
   + 0.5177049333667901 edge_17_18_0_0 + 0.492414818876177 edge_17_19_0_0
   - 0.2420647110006053 edge_17_20_0_0 - 0.1630304516423897 edge_17_22_0_0
   - 0.216631217415299 edge_18_9_0_0 + 0.181480862991611 edge_18_10_0_0
   - 0.2611491155785595 edge_18_11_0_0 + 0.1206072864928133 edge_18_12_0_0
   + 0.237686365524595 edge_18_13_0_0 - 0.0559543543067786 edge_18_16_0_0
   + 2.210216737097467 edge_18_17_0_0 + 0.6598862007395081 edge_18_19_0_0
   + 1.188662116906265 edge_18_20_0_0 + 0.6295672465708174 edge_18_22_0_0
   - 1.182772859626595 edge_19_9_0_0 - 0.1271797999339641 edge_19_17_0_0
   + 0.1353572307930919 edge_19_18_0_0 - 0.4312569524017094 edge_19_22_0_0
   - 1.068846806120114 edge_20_1_0_0 - 1.062715652980493 edge_20_9_0_0
   - 0.9013285455034586 edge_20_10_0_0 - 1.200978528852895 edge_20_11_0_0
   - 1.031876992128073 edge_20_12_0_0 - 0.2665648943447345 edge_20_13_0_0
   - 0.622175274170313 edge_20_16_0_0 - 0.00862008432853028 edge_20_17_0_0
   + 0.7309211416286716 edge_20_18_0_0 + 2.299042592094084 edge_20_19_0_0
   + 0.9774474130149516 edge_20_22_0_0 - 0.0161007117379739 edge_22_1_0_0
   - 0.372329235691125 edge_22_3_0_0 - 0.2076882127376725 edge_22_4_0_0
   + 0.0120023799585675 edge_22_5_0_0 - 0.4332751293453465 edge_22_7_0_0
   + 0.3087233616578131 edge_22_8_0_0 + 0.3263970693527645 edge_22_10_0_0
   - 0.1869707612411445 edge_22_11_0_0 + 0.3969541784852859 edge_22_12_0_0
   + 1.116383036802568 edge_22_13_0_0 + 0.7300255645832049 edge_22_16_0_0
   + 0.1441522699584865 edge_22_17_0_0 + 1.277303765991858 edge_22_20_0_0
Subject To
 one_parent_1: edge_0_1_0_0 + edge_3_1_0_0 + edge_4_1_0_0 + edge_5_1_0_0
   + edge_10_1_0_0 + edge_13_1_0_0 + edge_16_1_0_0 + edge_20_1_0_0
   + edge_22_1_0_0 = 1
 consume_one_flow_unit_1: flow_0_1_0_0 - flow_1_3_0_0 - flow_1_4_0_0
   - flow_1_5_0_0 - flow_1_7_0_0 - flow_1_8_0_0 - flow_1_10_0_0
   - flow_1_13_0_0 - flow_1_16_0_0 - flow_1_20_0_0 - flow_1_22_0_0
   + flow_3_1_0_0 + flow_4_1_0_0 + flow_5_1_0_0 + flow_10_1_0_0
   + flow_13_1_0_0 + flow_16_1_0_0 + flow_20_1_0_0 + flow_22_1_0_0 = 1
 one_parent_2: = 1
 consume_one_flow_unit_2: = 1
 one_parent_3: edge_1_3_0_0 + edge_4_3_0_0 + edge_5_3_0_0 + edge_7_3_0_0
   + edge_10_3_0_0 + edge_13_3_0_0 + edge_16_3_0_0 + edge_22_3_0_0 = 1
 consume_one_flow_unit_3: flow_1_3_0_0 - flow_3_1_0_0 - flow_3_7_0_0
   + flow_4_3_0_0 + flow_5_3_0_0 + flow_7_3_0_0 + flow_10_3_0_0
   + flow_13_3_0_0 + flow_16_3_0_0 + flow_22_3_0_0 = 1
 one_parent_4: edge_1_4_0_0 + edge_5_4_0_0 + edge_10_4_0_0 + edge_16_4_0_0
   + edge_22_4_0_0 = 1
 consume_one_flow_unit_4: flow_1_4_0_0 - flow_4_1_0_0 - flow_4_3_0_0
   - flow_4_5_0_0 - flow_4_7_0_0 - flow_4_8_0_0 - flow_4_10_0_0
   - flow_4_16_0_0 + flow_5_4_0_0 + flow_10_4_0_0 + flow_16_4_0_0
   + flow_22_4_0_0 = 1
 one_parent_5: edge_0_5_0_0 + edge_1_5_0_0 + edge_4_5_0_0 + edge_7_5_0_0
   + edge_8_5_0_0 + edge_10_5_0_0 + edge_13_5_0_0 + edge_16_5_0_0
   + edge_22_5_0_0 = 1
 consume_one_flow_unit_5: flow_0_5_0_0 + flow_1_5_0_0 + flow_4_5_0_0
   - flow_5_1_0_0 - flow_5_3_0_0 - flow_5_4_0_0 - flow_5_7_0_0
   - flow_5_8_0_0 - flow_5_10_0_0 - flow_5_13_0_0 - flow_5_16_0_0
   - flow_5_22_0_0 + flow_7_5_0_0 + flow_8_5_0_0 + flow_10_5_0_0
   + flow_13_5_0_0 + flow_16_5_0_0 + flow_22_5_0_0 = 1
 one_parent_6: = 1
 consume_one_flow_unit_6: = 1
 one_parent_7: edge_1_7_0_0 + edge_3_7_0_0 + edge_4_7_0_0 + edge_5_7_0_0
   + edge_8_7_0_0 + edge_10_7_0_0 + edge_13_7_0_0 + edge_16_7_0_0
   + edge_22_7_0_0 = 1
 consume_one_flow_unit_7: flow_1_7_0_0 + flow_3_7_0_0 + flow_4_7_0_0
   + flow_5_7_0_0 - flow_7_3_0_0 - flow_7_5_0_0 - flow_7_8_0_0
   + flow_8_7_0_0 + flow_10_7_0_0 + flow_13_7_0_0 + flow_16_7_0_0
   + flow_22_7_0_0 = 1
 one_parent_8: edge_1_8_0_0 + edge_4_8_0_0 + edge_5_8_0_0 + edge_7_8_0_0
   + edge_10_8_0_0 + edge_13_8_0_0 + edge_16_8_0_0 + edge_22_8_0_0 = 1
 consume_one_flow_unit_8: flow_1_8_0_0 + flow_4_8_0_0 + flow_5_8_0_0
   + flow_7_8_0_0 - flow_8_5_0_0 - flow_8_7_0_0 + flow_10_8_0_0
   + flow_13_8_0_0 + flow_16_8_0_0 + flow_22_8_0_0 = 1
 one_parent_9: edge_0_9_0_0 + edge_16_9_0_0 + edge_18_9_0_0 + edge_19_9_0_0
   + edge_20_9_0_0 = 1
 consume_one_flow_unit_9: flow_0_9_0_0 - flow_9_10_0_0 - flow_9_11_0_0
   - flow_9_12_0_0 - flow_9_13_0_0 - flow_9_16_0_0 - flow_9_17_0_0
   - flow_9_18_0_0 - flow_9_19_0_0 - flow_9_20_0_0 - flow_9_22_0_0
   + flow_16_9_0_0 + flow_18_9_0_0 + flow_19_9_0_0 + flow_20_9_0_0 = 1
 one_parent_10: edge_0_10_0_0 + edge_1_10_0_0 + edge_4_10_0_0
   + edge_5_10_0_0 + edge_9_10_0_0 + edge_11_10_0_0 + edge_12_10_0_0
   + edge_13_10_0_0 + edge_16_10_0_0 + edge_17_10_0_0 + edge_18_10_0_0
   + edge_20_10_0_0 + edge_22_10_0_0 = 1
 consume_one_flow_unit_10: flow_0_10_0_0 + flow_1_10_0_0 + flow_4_10_0_0
   + flow_5_10_0_0 + flow_9_10_0_0 - flow_10_1_0_0 - flow_10_3_0_0
   - flow_10_4_0_0 - flow_10_5_0_0 - flow_10_7_0_0 - flow_10_8_0_0
   - flow_10_11_0_0 - flow_10_12_0_0 - flow_10_13_0_0 - flow_10_15_0_0
   - flow_10_16_0_0 - flow_10_17_0_0 - flow_10_18_0_0 - flow_10_19_0_0
   - flow_10_20_0_0 - flow_10_22_0_0 + flow_11_10_0_0 + flow_12_10_0_0
   + flow_13_10_0_0 + flow_16_10_0_0 + flow_17_10_0_0 + flow_18_10_0_0
   + flow_20_10_0_0 + flow_22_10_0_0 = 1
 one_parent_11: edge_9_11_0_0 + edge_10_11_0_0 + edge_12_11_0_0
   + edge_13_11_0_0 + edge_15_11_0_0 + edge_16_11_0_0 + edge_18_11_0_0
   + edge_20_11_0_0 + edge_22_11_0_0 = 1
 consume_one_flow_unit_11: flow_9_11_0_0 + flow_10_11_0_0 - flow_11_10_0_0
   - flow_11_12_0_0 - flow_11_13_0_0 - flow_11_16_0_0 - flow_11_17_0_0
   - flow_11_18_0_0 - flow_11_19_0_0 + flow_12_11_0_0 + flow_13_11_0_0
   + flow_15_11_0_0 + flow_16_11_0_0 + flow_18_11_0_0 + flow_20_11_0_0
   + flow_22_11_0_0 = 1
 one_parent_12: edge_9_12_0_0 + edge_10_12_0_0 + edge_11_12_0_0
   + edge_13_12_0_0 + edge_16_12_0_0 + edge_18_12_0_0 + edge_20_12_0_0
   + edge_22_12_0_0 = 1
 consume_one_flow_unit_12: flow_9_12_0_0 + flow_10_12_0_0 + flow_11_12_0_0
   - flow_12_10_0_0 - flow_12_11_0_0 - flow_12_13_0_0 - flow_12_16_0_0
   - flow_12_17_0_0 - flow_12_18_0_0 - flow_12_19_0_0 - flow_12_20_0_0
   - flow_12_22_0_0 + flow_13_12_0_0 + flow_16_12_0_0 + flow_18_12_0_0
   + flow_20_12_0_0 + flow_22_12_0_0 = 1
 one_parent_13: edge_0_13_0_0 + edge_1_13_0_0 + edge_5_13_0_0
   + edge_9_13_0_0 + edge_10_13_0_0 + edge_11_13_0_0 + edge_12_13_0_0
   + edge_15_13_0_0 + edge_16_13_0_0 + edge_17_13_0_0 + edge_18_13_0_0
   + edge_20_13_0_0 + edge_22_13_0_0 = 1
 consume_one_flow_unit_13: flow_0_13_0_0 + flow_1_13_0_0 + flow_5_13_0_0
   + flow_9_13_0_0 + flow_10_13_0_0 + flow_11_13_0_0 + flow_12_13_0_0
   - flow_13_1_0_0 - flow_13_3_0_0 - flow_13_5_0_0 - flow_13_7_0_0
   - flow_13_8_0_0 - flow_13_10_0_0 - flow_13_11_0_0 - flow_13_12_0_0
   - flow_13_15_0_0 - flow_13_16_0_0 - flow_13_17_0_0 - flow_13_18_0_0
   - flow_13_19_0_0 - flow_13_20_0_0 - flow_13_22_0_0 + flow_15_13_0_0
   + flow_16_13_0_0 + flow_17_13_0_0 + flow_18_13_0_0 + flow_20_13_0_0
   + flow_22_13_0_0 = 1
 one_parent_14: = 1
 consume_one_flow_unit_14: = 1
 one_parent_15: edge_10_15_0_0 + edge_13_15_0_0 + edge_16_15_0_0 = 1
 consume_one_flow_unit_15: flow_10_15_0_0 + flow_13_15_0_0 - flow_15_11_0_0
   - flow_15_13_0_0 + flow_16_15_0_0 = 1
 one_parent_16: edge_0_16_0_0 + edge_1_16_0_0 + edge_4_16_0_0
   + edge_5_16_0_0 + edge_9_16_0_0 + edge_10_16_0_0 + edge_11_16_0_0
   + edge_12_16_0_0 + edge_13_16_0_0 + edge_17_16_0_0 + edge_18_16_0_0
   + edge_20_16_0_0 + edge_22_16_0_0 = 1
 consume_one_flow_unit_16: flow_0_16_0_0 + flow_1_16_0_0 + flow_4_16_0_0
   + flow_5_16_0_0 + flow_9_16_0_0 + flow_10_16_0_0 + flow_11_16_0_0
   + flow_12_16_0_0 + flow_13_16_0_0 - flow_16_1_0_0 - flow_16_3_0_0
   - flow_16_4_0_0 - flow_16_5_0_0 - flow_16_7_0_0 - flow_16_8_0_0
   - flow_16_9_0_0 - flow_16_10_0_0 - flow_16_11_0_0 - flow_16_12_0_0
   - flow_16_13_0_0 - flow_16_15_0_0 - flow_16_17_0_0 - flow_16_18_0_0
   - flow_16_19_0_0 - flow_16_20_0_0 - flow_16_22_0_0 + flow_17_16_0_0
   + flow_18_16_0_0 + flow_20_16_0_0 + flow_22_16_0_0 = 1
 one_parent_17: edge_9_17_0_0 + edge_10_17_0_0 + edge_11_17_0_0
   + edge_12_17_0_0 + edge_13_17_0_0 + edge_16_17_0_0 + edge_18_17_0_0
   + edge_19_17_0_0 + edge_20_17_0_0 + edge_22_17_0_0 = 1
 consume_one_flow_unit_17: flow_9_17_0_0 + flow_10_17_0_0 + flow_11_17_0_0
   + flow_12_17_0_0 + flow_13_17_0_0 + flow_16_17_0_0 - flow_17_10_0_0
   - flow_17_13_0_0 - flow_17_16_0_0 - flow_17_18_0_0 - flow_17_19_0_0
   - flow_17_20_0_0 - flow_17_22_0_0 + flow_18_17_0_0 + flow_19_17_0_0
   + flow_20_17_0_0 + flow_22_17_0_0 = 1
 one_parent_18: edge_9_18_0_0 + edge_10_18_0_0 + edge_11_18_0_0
   + edge_12_18_0_0 + edge_13_18_0_0 + edge_16_18_0_0 + edge_17_18_0_0
   + edge_19_18_0_0 + edge_20_18_0_0 = 1
 consume_one_flow_unit_18: flow_9_18_0_0 + flow_10_18_0_0 + flow_11_18_0_0
   + flow_12_18_0_0 + flow_13_18_0_0 + flow_16_18_0_0 + flow_17_18_0_0
   - flow_18_9_0_0 - flow_18_10_0_0 - flow_18_11_0_0 - flow_18_12_0_0
   - flow_18_13_0_0 - flow_18_16_0_0 - flow_18_17_0_0 - flow_18_19_0_0
   - flow_18_20_0_0 - flow_18_22_0_0 + flow_19_18_0_0 + flow_20_18_0_0 = 1
 one_parent_19: edge_9_19_0_0 + edge_10_19_0_0 + edge_11_19_0_0
   + edge_12_19_0_0 + edge_13_19_0_0 + edge_16_19_0_0 + edge_17_19_0_0
   + edge_18_19_0_0 + edge_20_19_0_0 = 1
 consume_one_flow_unit_19: flow_9_19_0_0 + flow_10_19_0_0 + flow_11_19_0_0
   + flow_12_19_0_0 + flow_13_19_0_0 + flow_16_19_0_0 + flow_17_19_0_0
   + flow_18_19_0_0 - flow_19_9_0_0 - flow_19_17_0_0 - flow_19_18_0_0
   - flow_19_22_0_0 + flow_20_19_0_0 = 1
 one_parent_20: edge_0_20_0_0 + edge_1_20_0_0 + edge_9_20_0_0
   + edge_10_20_0_0 + edge_12_20_0_0 + edge_13_20_0_0 + edge_16_20_0_0
   + edge_17_20_0_0 + edge_18_20_0_0 + edge_22_20_0_0 = 1
 consume_one_flow_unit_20: flow_0_20_0_0 + flow_1_20_0_0 + flow_9_20_0_0
   + flow_10_20_0_0 + flow_12_20_0_0 + flow_13_20_0_0 + flow_16_20_0_0
   + flow_17_20_0_0 + flow_18_20_0_0 - flow_20_1_0_0 - flow_20_9_0_0
   - flow_20_10_0_0 - flow_20_11_0_0 - flow_20_12_0_0 - flow_20_13_0_0
   - flow_20_16_0_0 - flow_20_17_0_0 - flow_20_18_0_0 - flow_20_19_0_0
   - flow_20_22_0_0 + flow_22_20_0_0 = 1
 one_parent_21: = 1
 consume_one_flow_unit_21: = 1
 one_parent_22: edge_0_22_0_0 + edge_1_22_0_0 + edge_5_22_0_0
   + edge_9_22_0_0 + edge_10_22_0_0 + edge_12_22_0_0 + edge_13_22_0_0
   + edge_16_22_0_0 + edge_17_22_0_0 + edge_18_22_0_0 + edge_19_22_0_0
   + edge_20_22_0_0 = 1
 consume_one_flow_unit_22: flow_0_22_0_0 + flow_1_22_0_0 + flow_5_22_0_0
   + flow_9_22_0_0 + flow_10_22_0_0 + flow_12_22_0_0 + flow_13_22_0_0
   + flow_16_22_0_0 + flow_17_22_0_0 + flow_18_22_0_0 + flow_19_22_0_0
   + flow_20_22_0_0 - flow_22_1_0_0 - flow_22_3_0_0 - flow_22_4_0_0
   - flow_22_5_0_0 - flow_22_7_0_0 - flow_22_8_0_0 - flow_22_10_0_0
   - flow_22_11_0_0 - flow_22_12_0_0 - flow_22_13_0_0 - flow_22_16_0_0
   - flow_22_17_0_0 - flow_22_20_0_0 = 1
 root_flow: flow_0_1_0_0 + flow_0_5_0_0 + flow_0_9_0_0 + flow_0_10_0_0
   + flow_0_13_0_0 + flow_0_16_0_0 + flow_0_20_0_0 + flow_0_22_0_0 = 22
 inactive_no_flow_0_1_0_0: flow_0_1_0_0 - 1000 edge_0_1_0_0 <= 0
 inactive_no_flow_0_5_0_0: flow_0_5_0_0 - 1000 edge_0_5_0_0 <= 0
 inactive_no_flow_0_9_0_0: flow_0_9_0_0 - 1000 edge_0_9_0_0 <= 0
 inactive_no_flow_0_10_0_0: flow_0_10_0_0 - 1000 edge_0_10_0_0 <= 0
 inactive_no_flow_0_13_0_0: flow_0_13_0_0 - 1000 edge_0_13_0_0 <= 0
 inactive_no_flow_0_16_0_0: flow_0_16_0_0 - 1000 edge_0_16_0_0 <= 0
 inactive_no_flow_0_20_0_0: flow_0_20_0_0 - 1000 edge_0_20_0_0 <= 0
 inactive_no_flow_0_22_0_0: flow_0_22_0_0 - 1000 edge_0_22_0_0 <= 0
 inactive_no_flow_1_3_0_0: flow_1_3_0_0 - 1000 edge_1_3_0_0 <= 0
 inactive_no_flow_1_4_0_0: flow_1_4_0_0 - 1000 edge_1_4_0_0 <= 0
 inactive_no_flow_1_5_0_0: flow_1_5_0_0 - 1000 edge_1_5_0_0 <= 0
 inactive_no_flow_1_7_0_0: flow_1_7_0_0 - 1000 edge_1_7_0_0 <= 0
 inactive_no_flow_1_8_0_0: flow_1_8_0_0 - 1000 edge_1_8_0_0 <= 0
 inactive_no_flow_1_10_0_0: flow_1_10_0_0 - 1000 edge_1_10_0_0 <= 0
 inactive_no_flow_1_13_0_0: flow_1_13_0_0 - 1000 edge_1_13_0_0 <= 0
 inactive_no_flow_1_16_0_0: flow_1_16_0_0 - 1000 edge_1_16_0_0 <= 0
 inactive_no_flow_1_20_0_0: flow_1_20_0_0 - 1000 edge_1_20_0_0 <= 0
 inactive_no_flow_1_22_0_0: flow_1_22_0_0 - 1000 edge_1_22_0_0 <= 0
 inactive_no_flow_3_1_0_0: flow_3_1_0_0 - 1000 edge_3_1_0_0 <= 0
 inactive_no_flow_3_7_0_0: flow_3_7_0_0 - 1000 edge_3_7_0_0 <= 0
 inactive_no_flow_4_1_0_0: flow_4_1_0_0 - 1000 edge_4_1_0_0 <= 0
 inactive_no_flow_4_3_0_0: flow_4_3_0_0 - 1000 edge_4_3_0_0 <= 0
 inactive_no_flow_4_5_0_0: flow_4_5_0_0 - 1000 edge_4_5_0_0 <= 0
 inactive_no_flow_4_7_0_0: flow_4_7_0_0 - 1000 edge_4_7_0_0 <= 0
 inactive_no_flow_4_8_0_0: flow_4_8_0_0 - 1000 edge_4_8_0_0 <= 0
 inactive_no_flow_4_10_0_0: flow_4_10_0_0 - 1000 edge_4_10_0_0 <= 0
 inactive_no_flow_4_16_0_0: flow_4_16_0_0 - 1000 edge_4_16_0_0 <= 0
 inactive_no_flow_5_1_0_0: flow_5_1_0_0 - 1000 edge_5_1_0_0 <= 0
 inactive_no_flow_5_3_0_0: flow_5_3_0_0 - 1000 edge_5_3_0_0 <= 0
 inactive_no_flow_5_4_0_0: flow_5_4_0_0 - 1000 edge_5_4_0_0 <= 0
 inactive_no_flow_5_7_0_0: flow_5_7_0_0 - 1000 edge_5_7_0_0 <= 0
 inactive_no_flow_5_8_0_0: flow_5_8_0_0 - 1000 edge_5_8_0_0 <= 0
 inactive_no_flow_5_10_0_0: flow_5_10_0_0 - 1000 edge_5_10_0_0 <= 0
 inactive_no_flow_5_13_0_0: flow_5_13_0_0 - 1000 edge_5_13_0_0 <= 0
 inactive_no_flow_5_16_0_0: flow_5_16_0_0 - 1000 edge_5_16_0_0 <= 0
 inactive_no_flow_5_22_0_0: flow_5_22_0_0 - 1000 edge_5_22_0_0 <= 0
 inactive_no_flow_7_3_0_0: flow_7_3_0_0 - 1000 edge_7_3_0_0 <= 0
 inactive_no_flow_7_5_0_0: flow_7_5_0_0 - 1000 edge_7_5_0_0 <= 0
 inactive_no_flow_7_8_0_0: flow_7_8_0_0 - 1000 edge_7_8_0_0 <= 0
 inactive_no_flow_8_5_0_0: flow_8_5_0_0 - 1000 edge_8_5_0_0 <= 0
 inactive_no_flow_8_7_0_0: flow_8_7_0_0 - 1000 edge_8_7_0_0 <= 0
 inactive_no_flow_9_10_0_0: flow_9_10_0_0 - 1000 edge_9_10_0_0 <= 0
 inactive_no_flow_9_11_0_0: flow_9_11_0_0 - 1000 edge_9_11_0_0 <= 0
 inactive_no_flow_9_12_0_0: flow_9_12_0_0 - 1000 edge_9_12_0_0 <= 0
 inactive_no_flow_9_13_0_0: flow_9_13_0_0 - 1000 edge_9_13_0_0 <= 0
 inactive_no_flow_9_16_0_0: flow_9_16_0_0 - 1000 edge_9_16_0_0 <= 0
 inactive_no_flow_9_17_0_0: flow_9_17_0_0 - 1000 edge_9_17_0_0 <= 0
 inactive_no_flow_9_18_0_0: flow_9_18_0_0 - 1000 edge_9_18_0_0 <= 0
 inactive_no_flow_9_19_0_0: flow_9_19_0_0 - 1000 edge_9_19_0_0 <= 0
 inactive_no_flow_9_20_0_0: flow_9_20_0_0 - 1000 edge_9_20_0_0 <= 0
 inactive_no_flow_9_22_0_0: flow_9_22_0_0 - 1000 edge_9_22_0_0 <= 0
 inactive_no_flow_10_1_0_0: flow_10_1_0_0 - 1000 edge_10_1_0_0 <= 0
 inactive_no_flow_10_3_0_0: flow_10_3_0_0 - 1000 edge_10_3_0_0 <= 0
 inactive_no_flow_10_4_0_0: flow_10_4_0_0 - 1000 edge_10_4_0_0 <= 0
 inactive_no_flow_10_5_0_0: flow_10_5_0_0 - 1000 edge_10_5_0_0 <= 0
 inactive_no_flow_10_7_0_0: flow_10_7_0_0 - 1000 edge_10_7_0_0 <= 0
 inactive_no_flow_10_8_0_0: flow_10_8_0_0 - 1000 edge_10_8_0_0 <= 0
 inactive_no_flow_10_11_0_0: flow_10_11_0_0 - 1000 edge_10_11_0_0 <= 0
 inactive_no_flow_10_12_0_0: flow_10_12_0_0 - 1000 edge_10_12_0_0 <= 0
 inactive_no_flow_10_13_0_0: flow_10_13_0_0 - 1000 edge_10_13_0_0 <= 0
 inactive_no_flow_10_15_0_0: flow_10_15_0_0 - 1000 edge_10_15_0_0 <= 0
 inactive_no_flow_10_16_0_0: flow_10_16_0_0 - 1000 edge_10_16_0_0 <= 0
 inactive_no_flow_10_17_0_0: flow_10_17_0_0 - 1000 edge_10_17_0_0 <= 0
 inactive_no_flow_10_18_0_0: flow_10_18_0_0 - 1000 edge_10_18_0_0 <= 0
 inactive_no_flow_10_19_0_0: flow_10_19_0_0 - 1000 edge_10_19_0_0 <= 0
 inactive_no_flow_10_20_0_0: flow_10_20_0_0 - 1000 edge_10_20_0_0 <= 0
 inactive_no_flow_10_22_0_0: flow_10_22_0_0 - 1000 edge_10_22_0_0 <= 0
 inactive_no_flow_11_10_0_0: flow_11_10_0_0 - 1000 edge_11_10_0_0 <= 0
 inactive_no_flow_11_12_0_0: flow_11_12_0_0 - 1000 edge_11_12_0_0 <= 0
 inactive_no_flow_11_13_0_0: flow_11_13_0_0 - 1000 edge_11_13_0_0 <= 0
 inactive_no_flow_11_16_0_0: flow_11_16_0_0 - 1000 edge_11_16_0_0 <= 0
 inactive_no_flow_11_17_0_0: flow_11_17_0_0 - 1000 edge_11_17_0_0 <= 0
 inactive_no_flow_11_18_0_0: flow_11_18_0_0 - 1000 edge_11_18_0_0 <= 0
 inactive_no_flow_11_19_0_0: flow_11_19_0_0 - 1000 edge_11_19_0_0 <= 0
 inactive_no_flow_12_10_0_0: flow_12_10_0_0 - 1000 edge_12_10_0_0 <= 0
 inactive_no_flow_12_11_0_0: flow_12_11_0_0 - 1000 edge_12_11_0_0 <= 0
 inactive_no_flow_12_13_0_0: flow_12_13_0_0 - 1000 edge_12_13_0_0 <= 0
 inactive_no_flow_12_16_0_0: flow_12_16_0_0 - 1000 edge_12_16_0_0 <= 0
 inactive_no_flow_12_17_0_0: flow_12_17_0_0 - 1000 edge_12_17_0_0 <= 0
 inactive_no_flow_12_18_0_0: flow_12_18_0_0 - 1000 edge_12_18_0_0 <= 0
 inactive_no_flow_12_19_0_0: flow_12_19_0_0 - 1000 edge_12_19_0_0 <= 0
 inactive_no_flow_12_20_0_0: flow_12_20_0_0 - 1000 edge_12_20_0_0 <= 0
 inactive_no_flow_12_22_0_0: flow_12_22_0_0 - 1000 edge_12_22_0_0 <= 0
 inactive_no_flow_13_1_0_0: flow_13_1_0_0 - 1000 edge_13_1_0_0 <= 0
 inactive_no_flow_13_3_0_0: flow_13_3_0_0 - 1000 edge_13_3_0_0 <= 0
 inactive_no_flow_13_5_0_0: flow_13_5_0_0 - 1000 edge_13_5_0_0 <= 0
 inactive_no_flow_13_7_0_0: flow_13_7_0_0 - 1000 edge_13_7_0_0 <= 0
 inactive_no_flow_13_8_0_0: flow_13_8_0_0 - 1000 edge_13_8_0_0 <= 0
 inactive_no_flow_13_10_0_0: flow_13_10_0_0 - 1000 edge_13_10_0_0 <= 0
 inactive_no_flow_13_11_0_0: flow_13_11_0_0 - 1000 edge_13_11_0_0 <= 0
 inactive_no_flow_13_12_0_0: flow_13_12_0_0 - 1000 edge_13_12_0_0 <= 0
 inactive_no_flow_13_15_0_0: flow_13_15_0_0 - 1000 edge_13_15_0_0 <= 0
 inactive_no_flow_13_16_0_0: flow_13_16_0_0 - 1000 edge_13_16_0_0 <= 0
 inactive_no_flow_13_17_0_0: flow_13_17_0_0 - 1000 edge_13_17_0_0 <= 0
 inactive_no_flow_13_18_0_0: flow_13_18_0_0 - 1000 edge_13_18_0_0 <= 0
 inactive_no_flow_13_19_0_0: flow_13_19_0_0 - 1000 edge_13_19_0_0 <= 0
 inactive_no_flow_13_20_0_0: flow_13_20_0_0 - 1000 edge_13_20_0_0 <= 0
 inactive_no_flow_13_22_0_0: flow_13_22_0_0 - 1000 edge_13_22_0_0 <= 0
 inactive_no_flow_15_11_0_0: flow_15_11_0_0 - 1000 edge_15_11_0_0 <= 0
 inactive_no_flow_15_13_0_0: flow_15_13_0_0 - 1000 edge_15_13_0_0 <= 0
 inactive_no_flow_16_1_0_0: flow_16_1_0_0 - 1000 edge_16_1_0_0 <= 0
 inactive_no_flow_16_3_0_0: flow_16_3_0_0 - 1000 edge_16_3_0_0 <= 0
 inactive_no_flow_16_4_0_0: flow_16_4_0_0 - 1000 edge_16_4_0_0 <= 0
 inactive_no_flow_16_5_0_0: flow_16_5_0_0 - 1000 edge_16_5_0_0 <= 0
 inactive_no_flow_16_7_0_0: flow_16_7_0_0 - 1000 edge_16_7_0_0 <= 0
 inactive_no_flow_16_8_0_0: flow_16_8_0_0 - 1000 edge_16_8_0_0 <= 0
 inactive_no_flow_16_9_0_0: flow_16_9_0_0 - 1000 edge_16_9_0_0 <= 0
 inactive_no_flow_16_10_0_0: flow_16_10_0_0 - 1000 edge_16_10_0_0 <= 0
 inactive_no_flow_16_11_0_0: flow_16_11_0_0 - 1000 edge_16_11_0_0 <= 0
 inactive_no_flow_16_12_0_0: flow_16_12_0_0 - 1000 edge_16_12_0_0 <= 0
 inactive_no_flow_16_13_0_0: flow_16_13_0_0 - 1000 edge_16_13_0_0 <= 0
 inactive_no_flow_16_15_0_0: flow_16_15_0_0 - 1000 edge_16_15_0_0 <= 0
 inactive_no_flow_16_17_0_0: flow_16_17_0_0 - 1000 edge_16_17_0_0 <= 0
 inactive_no_flow_16_18_0_0: flow_16_18_0_0 - 1000 edge_16_18_0_0 <= 0
 inactive_no_flow_16_19_0_0: flow_16_19_0_0 - 1000 edge_16_19_0_0 <= 0
 inactive_no_flow_16_20_0_0: flow_16_20_0_0 - 1000 edge_16_20_0_0 <= 0
 inactive_no_flow_16_22_0_0: flow_16_22_0_0 - 1000 edge_16_22_0_0 <= 0
 inactive_no_flow_17_10_0_0: flow_17_10_0_0 - 1000 edge_17_10_0_0 <= 0
 inactive_no_flow_17_13_0_0: flow_17_13_0_0 - 1000 edge_17_13_0_0 <= 0
 inactive_no_flow_17_16_0_0: flow_17_16_0_0 - 1000 edge_17_16_0_0 <= 0
 inactive_no_flow_17_18_0_0: flow_17_18_0_0 - 1000 edge_17_18_0_0 <= 0
 inactive_no_flow_17_19_0_0: flow_17_19_0_0 - 1000 edge_17_19_0_0 <= 0
 inactive_no_flow_17_20_0_0: flow_17_20_0_0 - 1000 edge_17_20_0_0 <= 0
 inactive_no_flow_17_22_0_0: flow_17_22_0_0 - 1000 edge_17_22_0_0 <= 0
 inactive_no_flow_18_9_0_0: flow_18_9_0_0 - 1000 edge_18_9_0_0 <= 0
 inactive_no_flow_18_10_0_0: flow_18_10_0_0 - 1000 edge_18_10_0_0 <= 0
 inactive_no_flow_18_11_0_0: flow_18_11_0_0 - 1000 edge_18_11_0_0 <= 0
 inactive_no_flow_18_12_0_0: flow_18_12_0_0 - 1000 edge_18_12_0_0 <= 0
 inactive_no_flow_18_13_0_0: flow_18_13_0_0 - 1000 edge_18_13_0_0 <= 0
 inactive_no_flow_18_16_0_0: flow_18_16_0_0 - 1000 edge_18_16_0_0 <= 0
 inactive_no_flow_18_17_0_0: flow_18_17_0_0 - 1000 edge_18_17_0_0 <= 0
 inactive_no_flow_18_19_0_0: flow_18_19_0_0 - 1000 edge_18_19_0_0 <= 0
 inactive_no_flow_18_20_0_0: flow_18_20_0_0 - 1000 edge_18_20_0_0 <= 0
 inactive_no_flow_18_22_0_0: flow_18_22_0_0 - 1000 edge_18_22_0_0 <= 0
 inactive_no_flow_19_9_0_0: flow_19_9_0_0 - 1000 edge_19_9_0_0 <= 0
 inactive_no_flow_19_17_0_0: flow_19_17_0_0 - 1000 edge_19_17_0_0 <= 0
 inactive_no_flow_19_18_0_0: flow_19_18_0_0 - 1000 edge_19_18_0_0 <= 0
 inactive_no_flow_19_22_0_0: flow_19_22_0_0 - 1000 edge_19_22_0_0 <= 0
 inactive_no_flow_20_1_0_0: flow_20_1_0_0 - 1000 edge_20_1_0_0 <= 0
 inactive_no_flow_20_9_0_0: flow_20_9_0_0 - 1000 edge_20_9_0_0 <= 0
 inactive_no_flow_20_10_0_0: flow_20_10_0_0 - 1000 edge_20_10_0_0 <= 0
 inactive_no_flow_20_11_0_0: flow_20_11_0_0 - 1000 edge_20_11_0_0 <= 0
 inactive_no_flow_20_12_0_0: flow_20_12_0_0 - 1000 edge_20_12_0_0 <= 0
 inactive_no_flow_20_13_0_0: flow_20_13_0_0 - 1000 edge_20_13_0_0 <= 0
 inactive_no_flow_20_16_0_0: flow_20_16_0_0 - 1000 edge_20_16_0_0 <= 0
 inactive_no_flow_20_17_0_0: flow_20_17_0_0 - 1000 edge_20_17_0_0 <= 0
 inactive_no_flow_20_18_0_0: flow_20_18_0_0 - 1000 edge_20_18_0_0 <= 0
 inactive_no_flow_20_19_0_0: flow_20_19_0_0 - 1000 edge_20_19_0_0 <= 0
 inactive_no_flow_20_22_0_0: flow_20_22_0_0 - 1000 edge_20_22_0_0 <= 0
 inactive_no_flow_22_1_0_0: flow_22_1_0_0 - 1000 edge_22_1_0_0 <= 0
 inactive_no_flow_22_3_0_0: flow_22_3_0_0 - 1000 edge_22_3_0_0 <= 0
 inactive_no_flow_22_4_0_0: flow_22_4_0_0 - 1000 edge_22_4_0_0 <= 0
 inactive_no_flow_22_5_0_0: flow_22_5_0_0 - 1000 edge_22_5_0_0 <= 0
 inactive_no_flow_22_7_0_0: flow_22_7_0_0 - 1000 edge_22_7_0_0 <= 0
 inactive_no_flow_22_8_0_0: flow_22_8_0_0 - 1000 edge_22_8_0_0 <= 0
 inactive_no_flow_22_10_0_0: flow_22_10_0_0 - 1000 edge_22_10_0_0 <= 0
 inactive_no_flow_22_11_0_0: flow_22_11_0_0 - 1000 edge_22_11_0_0 <= 0
 inactive_no_flow_22_12_0_0: flow_22_12_0_0 - 1000 edge_22_12_0_0 <= 0
 inactive_no_flow_22_13_0_0: flow_22_13_0_0 - 1000 edge_22_13_0_0 <= 0
 inactive_no_flow_22_16_0_0: flow_22_16_0_0 - 1000 edge_22_16_0_0 <= 0
 inactive_no_flow_22_17_0_0: flow_22_17_0_0 - 1000 edge_22_17_0_0 <= 0
 inactive_no_flow_22_20_0_0: flow_22_20_0_0 - 1000 edge_22_20_0_0 <= 0
Bounds
Binaries
 edge_0_1_0_0 edge_0_5_0_0 edge_0_9_0_0 edge_0_10_0_0 edge_0_13_0_0
 edge_0_16_0_0 edge_0_20_0_0 edge_0_22_0_0 edge_1_3_0_0 edge_1_4_0_0
 edge_1_5_0_0 edge_1_7_0_0 edge_1_8_0_0 edge_1_10_0_0 edge_1_13_0_0
 edge_1_16_0_0 edge_1_20_0_0 edge_1_22_0_0 edge_3_1_0_0 edge_3_7_0_0
 edge_4_1_0_0 edge_4_3_0_0 edge_4_5_0_0 edge_4_7_0_0 edge_4_8_0_0
 edge_4_10_0_0 edge_4_16_0_0 edge_5_1_0_0 edge_5_3_0_0 edge_5_4_0_0
 edge_5_7_0_0 edge_5_8_0_0 edge_5_10_0_0 edge_5_13_0_0 edge_5_16_0_0
 edge_5_22_0_0 edge_7_3_0_0 edge_7_5_0_0 edge_7_8_0_0 edge_8_5_0_0
 edge_8_7_0_0 edge_9_10_0_0 edge_9_11_0_0 edge_9_12_0_0 edge_9_13_0_0
 edge_9_16_0_0 edge_9_17_0_0 edge_9_18_0_0 edge_9_19_0_0 edge_9_20_0_0
 edge_9_22_0_0 edge_10_1_0_0 edge_10_3_0_0 edge_10_4_0_0 edge_10_5_0_0
 edge_10_7_0_0 edge_10_8_0_0 edge_10_11_0_0 edge_10_12_0_0 edge_10_13_0_0
 edge_10_15_0_0 edge_10_16_0_0 edge_10_17_0_0 edge_10_18_0_0 edge_10_19_0_0
 edge_10_20_0_0 edge_10_22_0_0 edge_11_10_0_0 edge_11_12_0_0 edge_11_13_0_0
 edge_11_16_0_0 edge_11_17_0_0 edge_11_18_0_0 edge_11_19_0_0 edge_12_10_0_0
 edge_12_11_0_0 edge_12_13_0_0 edge_12_16_0_0 edge_12_17_0_0 edge_12_18_0_0
 edge_12_19_0_0 edge_12_20_0_0 edge_12_22_0_0 edge_13_1_0_0 edge_13_3_0_0
 edge_13_5_0_0 edge_13_7_0_0 edge_13_8_0_0 edge_13_10_0_0 edge_13_11_0_0
 edge_13_12_0_0 edge_13_15_0_0 edge_13_16_0_0 edge_13_17_0_0 edge_13_18_0_0
 edge_13_19_0_0 edge_13_20_0_0 edge_13_22_0_0 edge_15_11_0_0 edge_15_13_0_0
 edge_16_1_0_0 edge_16_3_0_0 edge_16_4_0_0 edge_16_5_0_0 edge_16_7_0_0
 edge_16_8_0_0 edge_16_9_0_0 edge_16_10_0_0 edge_16_11_0_0 edge_16_12_0_0
 edge_16_13_0_0 edge_16_15_0_0 edge_16_17_0_0 edge_16_18_0_0 edge_16_19_0_0
 edge_16_20_0_0 edge_16_22_0_0 edge_17_10_0_0 edge_17_13_0_0 edge_17_16_0_0
 edge_17_18_0_0 edge_17_19_0_0 edge_17_20_0_0 edge_17_22_0_0 edge_18_9_0_0
 edge_18_10_0_0 edge_18_11_0_0 edge_18_12_0_0 edge_18_13_0_0 edge_18_16_0_0
 edge_18_17_0_0 edge_18_19_0_0 edge_18_20_0_0 edge_18_22_0_0 edge_19_9_0_0
 edge_19_17_0_0 edge_19_18_0_0 edge_19_22_0_0 edge_20_1_0_0 edge_20_9_0_0
 edge_20_10_0_0 edge_20_11_0_0 edge_20_12_0_0 edge_20_13_0_0 edge_20_16_0_0
 edge_20_17_0_0 edge_20_18_0_0 edge_20_19_0_0 edge_20_22_0_0 edge_22_1_0_0
 edge_22_3_0_0 edge_22_4_0_0 edge_22_5_0_0 edge_22_7_0_0 edge_22_8_0_0
 edge_22_10_0_0 edge_22_11_0_0 edge_22_12_0_0 edge_22_13_0_0 edge_22_16_0_0
 edge_22_17_0_0 edge_22_20_0_0
End
